NAME 
ROWS
 N  OBJ
 L  R0      
 E  R1      
 E  R2      
 E  R3      
 E  R4      
 E  R5      
 E  R6      
 E  R7      
 E  R8      
 E  R9      
 E  R10     
 E  R11     
 E  R12     
 E  R13     
 E  R14     
 E  R15     
 E  R16     
 E  R17     
 E  R18     
 E  R19     
 E  R20     
 E  R21     
 E  R22     
 E  R23     
 E  R24     
 E  R25     
 E  R26     
 E  R27     
 E  R28     
 E  R29     
 E  R30     
COLUMNS
    MARKER    'MARKER'                 'INTORG'
    I0(3)     OBJ       10
    I0(3)     R0        -128
    I0(3)     R1        14
    I0(3)     R30       1
    I1(3)     OBJ       -117
    I1(3)     R0        -50
    I1(3)     R2        16
    I1(3)     R30       1
    I2(3)     OBJ       138
    I2(3)     R0        -129
    I2(3)     R3        17
    I2(3)     R30       1
    I3(3)     OBJ       -81
    I3(3)     R0        54
    I3(3)     R4        2
    I3(3)     R30       1
    I4(3)     OBJ       -190
    I4(3)     R0        -12
    I4(3)     R5        13
    I4(3)     R30       1
    I5(3)     OBJ       -166
    I5(3)     R0        92
    I5(3)     R6        3
    I5(3)     R30       1
    I6(3)     OBJ       -116
    I6(3)     R0        -53
    I6(3)     R7        6
    I6(3)     R30       1
    I7(3)     OBJ       113
    I7(3)     R0        -161
    I7(3)     R8        10
    I7(3)     R30       1
    I8(3)     OBJ       -51
    I8(3)     R0        -144
    I8(3)     R9        8
    I8(3)     R30       1
    I9(3)     OBJ       3
    I9(3)     R0        -52
    I9(3)     R10       6
    I9(3)     R30       1
    I10(3)    OBJ       -87
    I10(3)    R0        -27
    I10(3)    R11       5
    I10(3)    R30       1
    I11(3)    OBJ       -184
    I11(3)    R0        -177
    I11(3)    R12       19
    I11(3)    R30       1
    I12(3)    OBJ       -24
    I12(3)    R0        45
    I12(3)    R13       3
    I12(3)    R30       1
    I13(3)    OBJ       -25
    I13(3)    R0        -2
    I13(3)    R14       17
    I13(3)    R30       1
    I14(3)    OBJ       -3
    I14(3)    R0        -155
    I14(3)    R15       18
    I14(3)    R30       1
    I15(3)    OBJ       -158
    I15(3)    R0        76
    I15(3)    R16       -1
    I15(3)    R30       1
    I16(3)    OBJ       65
    I16(3)    R0        76
    I16(3)    R17       5
    I16(3)    R30       1
    I17(2)    OBJ       46
    I17(2)    R0        -62
    I17(2)    R30       1
    I18(3)    OBJ       -200
    I18(3)    R0        -9
    I18(3)    R19       4
    I18(3)    R30       1
    I19(2)    OBJ       -173
    I19(2)    R0        -24
    I19(2)    R30       1
    I20(3)    OBJ       78
    I20(3)    R0        17
    I20(3)    R21       19
    I20(3)    R30       1
    I21(3)    OBJ       -21
    I21(3)    R0        196
    I21(3)    R22       13
    I21(3)    R30       1
    I22(3)    OBJ       -199
    I22(3)    R0        167
    I22(3)    R23       13
    I22(3)    R30       1
    I23(3)    OBJ       -101
    I23(3)    R0        75
    I23(3)    R24       18
    I23(3)    R30       1
    I24(3)    OBJ       -2
    I24(3)    R0        -177
    I24(3)    R25       3
    I24(3)    R30       1
    I25(3)    OBJ       86
    I25(3)    R0        17
    I25(3)    R26       16
    I25(3)    R30       1
    I26(3)    OBJ       -65
    I26(3)    R0        -89
    I26(3)    R27       3
    I26(3)    R30       1
    I27(3)    OBJ       135
    I27(3)    R0        60
    I27(3)    R28       9
    I27(3)    R30       1
    MARKER    'MARKER'                 'INTEND'
    C28(27)   R1        19
    C28(27)   R2        -1
    C28(27)   R3        5
    C28(27)   R4        2
    C28(27)   R5        2
    C28(27)   R6        1
    C28(27)   R7        16
    C28(27)   R8        4
    C28(27)   R10       7
    C28(27)   R11       18
    C28(27)   R12       12
    C28(27)   R14       11
    C28(27)   R15       6
    C28(27)   R16       2
    C28(27)   R17       16
    C28(27)   R18       13
    C28(27)   R19       15
    C28(27)   R20       16
    C28(27)   R21       14
    C28(27)   R22       17
    C28(27)   R23       18
    C28(27)   R24       1
    C28(27)   R25       1
    C28(27)   R26       7
    C28(27)   R27       17
    C28(27)   R28       13
    C28(27)   R29       7
    C29(29)   OBJ       -3
    C29(29)   R0        2
    C29(29)   R1        11
    C29(29)   R2        3
    C29(29)   R3        9
    C29(29)   R4        11
    C29(29)   R5        1
    C29(29)   R6        15
    C29(29)   R7        11
    C29(29)   R8        4
    C29(29)   R9        12
    C29(29)   R10       3
    C29(29)   R11       5
    C29(29)   R12       4
    C29(29)   R13       -1
    C29(29)   R14       13
    C29(29)   R15       9
    C29(29)   R16       18
    C29(29)   R17       12
    C29(29)   R18       3
    C29(29)   R19       15
    C29(29)   R20       16
    C29(29)   R21       18
    C29(29)   R22       6
    C29(29)   R24       12
    C29(29)   R25       17
    C29(29)   R26       6
    C29(29)   R27       15
    C29(29)   R28       16
    C29(29)   R29       1
    C30(1)    R1        1
    C31(1)    R2        1
    C32(1)    R3        1
    C33(1)    R4        1
    C34(1)    R5        1
    C35(1)    R6        1
    C36(1)    R7        1
    C37(1)    R8        1
    C38(1)    R9        1
    C39(1)    R10       1
    C40(1)    R11       1
    C41(1)    R12       1
    C42(1)    R13       1
    C43(1)    R14       1
    C44(1)    R15       1
    C45(1)    R16       1
    C46(1)    R17       1
    C47(1)    R18       1
    C48(1)    R19       1
    C49(1)    R20       1
    C50(1)    R21       1
    C51(1)    R22       1
    C52(1)    R23       1
    C53(1)    R24       1
    C54(1)    R25       1
    C55(1)    R26       1
    C56(1)    R27       1
    C57(1)    R28       1
    C58(1)    R29       1
    C59(1)    R30       1
RHS
    RHS1      R0        1.5555555555555555e+01
    RHS1      R1        59
    RHS1      R2        84
    RHS1      R3        73
    RHS1      R4        70
    RHS1      R5        64
    RHS1      R6        55
    RHS1      R7        53
    RHS1      R8        61
    RHS1      R9        91
    RHS1      R10       91
    RHS1      R11       85
    RHS1      R12       68
    RHS1      R13       52
    RHS1      R14       73
    RHS1      R15       70
    RHS1      R16       61
    RHS1      R17       64
    RHS1      R18       91
    RHS1      R19       52
    RHS1      R20       76
    RHS1      R21       50
    RHS1      R22       85
    RHS1      R23       62
    RHS1      R24       99
    RHS1      R25       72
    RHS1      R26       66
    RHS1      R27       57
    RHS1      R28       99
    RHS1      R29       74
    RHS1      R30       9
BOUNDS
 UP BND1      I0(3)     1
 UP BND1      I1(3)     1
 UP BND1      I2(3)     1
 UP BND1      I3(3)     1
 UP BND1      I4(3)     1
 UP BND1      I5(3)     1
 UP BND1      I6(3)     1
 UP BND1      I7(3)     1
 UP BND1      I8(3)     1
 UP BND1      I9(3)     1
 UP BND1      I10(3)    1
 UP BND1      I11(3)    1
 UP BND1      I12(3)    1
 UP BND1      I13(3)    1
 UP BND1      I14(3)    1
 UP BND1      I15(3)    1
 UP BND1      I16(3)    1
 UP BND1      I17(2)    1
 UP BND1      I18(3)    1
 UP BND1      I19(2)    1
 UP BND1      I20(3)    1
 UP BND1      I21(3)    1
 UP BND1      I22(3)    1
 UP BND1      I23(3)    1
 UP BND1      I24(3)    1
 UP BND1      I25(3)    1
 UP BND1      I26(3)    1
 UP BND1      I27(3)    1
ENDATA
